NAME : R209.6003.tour
COMMENT : Cost = 0_6003
COMMENT : Found by LKH [Keld Helsgaun] Wed Sep 13 18:34:24 2017
TYPE : TOUR
DIMENSION : 54
TOUR_SECTION
1
6
17
45
39
15
16
44
43
38
14
52
29
13
30
4
34
35
36
10
21
33
11
2
51
54
41
22
3
42
23
24
40
5
26
25
7
27
53
28
32
31
12
20
48
8
19
18
46
9
47
37
50
49
-1
EOF
